set machine := 1 2 3 4 5 6 7;

param a := 
1	16
2	16
3	16
4	36
5	9
6	9
7	9;


param lb := 2;

param ub := 7;

param f :
	1	2	3	4	5	6	7:=
1	0	0	0	5	0	0	1
2	0	0	0	3	0	0	1
3	0	0	0	2	0	0	1
4	5	3	2	0	4	4	0
5	0	0	0	4	0	0	2
6	0	0	0	4	0	0	1
7	1	1	1	0	2	1	0;		

param lfx := 8.54;

param lfy := 13;

param M := 10000;


